4,2,7,3,6,2,2,3,9,2,5,2,1,3,8,3,3,4,10,3;1,1,2,2,8,2,10,2,4,4,6,3,5,3,7,5,9,5,3,5;2,1,7,2,4,3,3,1,1,2,9,4,6,4,8,4,5,5,10,4;7,1,3,2,9,3,2,5,4,5,5,4,6,5,1,5,8,5,10,5;4,1,8,1,10,1,6,1,9,1,5,1,7,4,2,4,3,3,1,4;
